language Essence 1.3

letting class be function(1 --> 1, 2 --> 1, 3 --> 1, 4 --> 2, 5 --> 1, 6 --> 1)
letting deck_length be 38
letting deck_width be 74
letting length be function(1 --> 4, 2 --> 12, 3 --> 19, 4 --> 36, 5 --> 1, 6 --> 1)
letting n_classes be 2
letting n_containers be 6
letting separation be function({1, 2} --> 61)
letting width be function(1 --> 30, 2 --> 14, 3 --> 9, 4 --> 1, 5 --> 4, 6 --> 5)
